(set-option :produce-models true); benchmark generated from python API
(set-info :status unknown)
(declare-fun l_1_0_6 () Real)
(declare-fun l_1_0_4 () Real)
(declare-fun l_1_0_3 () Real)
(declare-fun l_1_0_11 () Real)
(declare-fun l_1_0_10 () Real)
(declare-fun l_1_0_1 () Real)
(declare-fun _a_0_ () Real)
(declare-fun l_1_0_9 () Real)
(declare-fun l_1_0_8 () Real)
(declare-fun l_1_0_7 () Real)
(declare-fun l_1_0_5 () Real)
(declare-fun l_1_0_2 () Real)
(declare-fun _a_1_ () Real)
(declare-fun _a_2_ () Real)
(declare-fun l_1_1_9 () Real)
(declare-fun l_1_1_8 () Real)
(declare-fun l_1_1_7 () Real)
(declare-fun l_1_1_5 () Real)
(declare-fun l_1_1_4 () Real)
(declare-fun l_1_1_3 () Real)
(declare-fun l_1_1_15 () Real)
(declare-fun l_1_1_14 () Real)
(declare-fun l_1_1_13 () Real)
(declare-fun l_1_1_12 () Real)
(declare-fun l_1_1_6 () Real)
(declare-fun l_1_1_2 () Real)
(declare-fun l_1_1_11 () Real)
(declare-fun l_1_1_10 () Real)
(declare-fun l_1_1_1 () Real)
(declare-fun l_1_1_16 () Real)
(declare-fun l_1_1_17 () Real)
(declare-fun l_1_2_6 () Real)
(declare-fun l_1_2_4 () Real)
(declare-fun l_1_2_3 () Real)
(declare-fun l_1_2_2 () Real)
(declare-fun l_1_2_17 () Real)
(declare-fun l_1_2_16 () Real)
(declare-fun l_1_2_13 () Real)
(declare-fun l_1_2_10 () Real)
(declare-fun l_1_2_1 () Real)
(declare-fun l_1_2_8 () Real)
(declare-fun l_1_2_7 () Real)
(declare-fun l_1_2_5 () Real)
(declare-fun l_1_2_15 () Real)
(declare-fun l_1_2_9 () Real)
(declare-fun l_1_2_14 () Real)
(declare-fun l_1_2_12 () Real)
(declare-fun l_1_2_11 () Real)
(assert
 (let ((?x26 (* 6400.0 l_1_0_3)))
 (let ((?x560 (* l_1_0_11 l_1_0_11)))
 (let ((?x25 (+ (- (- (- (+ _a_0_ l_1_0_1) (* l_1_0_10 l_1_0_10)) ?x560) ?x26) l_1_0_4)))
 (= (+ ?x25 l_1_0_6) 0.0)))))
(assert
 (let ((?x464 (* l_1_0_9 l_1_0_9)))
 (let ((?x465 (- (- (- (- (- _a_1_ l_1_0_2) l_1_0_5) l_1_0_7) l_1_0_8) ?x464)))
 (= ?x465 0.0))))
(assert
 (let ((?x423 (* 80.0 l_1_0_6)))
 (let ((?x422 (* 80.0 l_1_0_4)))
 (let ((?x421 (- (- _a_2_ (* 80.0 l_1_0_1)) (* (* 2.0 l_1_0_10) l_1_0_9))))
 (= (- (- ?x421 ?x422) ?x423) 0.0)))))
(assert
 (= (* 160.0 l_1_0_3) 0.0))
(assert
 (= (- l_1_0_3) 0.0))
(assert
 (>= l_1_0_1 0.0))
(assert
 (>= l_1_0_2 0.0))
(assert
 (>= l_1_0_3 0.0))
(assert
 (>= l_1_0_4 0.0))
(assert
 (>= l_1_0_5 0.0))
(assert
 (>= l_1_0_6 0.0))
(assert
 (>= l_1_0_7 0.0))
(assert
 (>= l_1_0_8 0.0))
(assert
 (>= l_1_0_9 0.0))
(assert
 (>= l_1_0_11 0.0))
(assert
 (let ((?x274 (* 82.0 l_1_1_9)))
 (let ((?x272 (* 6724.0 l_1_1_8)))
 (let ((?x310 (* 82.0 l_1_1_7)))
 (let ((?x219 (* 82.0 l_1_1_5)))
 (let ((?x203 (* l_1_1_15 l_1_1_15)))
 (let ((?x326 (* _a_1_ l_1_1_2)))
 (let ((?x327 (* _a_1_ l_1_1_11)))
 (let ((?x17 (- (+ (* (- _a_1_) l_1_1_1) (* (* 82.0 _a_1_) l_1_1_10)) ?x327)))
 (let ((?x15 (- (- (+ (- ?x17 ?x326) (* (* 82.0 _a_1_) l_1_1_6)) l_1_1_12) l_1_1_13)))
 (let ((?x308 (- (- (- (- ?x15 l_1_1_14) ?x203) l_1_1_3) (* (* l_1_1_4 _a_1_) _a_1_))))
 (= (- (+ (- (+ (+ ?x308 ?x219) ?x310) ?x272) ?x274) 790.0) 0.0))))))))))))
(assert
 (let ((?x90 (* 81.0 l_1_1_9)))
 (let ((?x89 (* 13284.0 l_1_1_8)))
 (let ((?x85 (* 81.0 l_1_1_7)))
 (let ((?x112 (* 81.0 l_1_1_5)))
 (let ((?x132 (* _a_2_ l_1_1_2)))
 (let ((?x133 (* _a_2_ l_1_1_11)))
 (let ((?x134 (* _a_2_ l_1_1_1)))
 (let ((?x9 (- (- (- (* (* (* (- 2.0) _a_1_) _a_2_) l_1_1_4) ?x134) ?x133) ?x132)))
 (let ((?x110 (- (- ?x9 (* l_1_1_10 (- (* (- 81.0) _a_1_) (* 82.0 _a_2_)))) (* (* 2.0 l_1_1_15) l_1_1_16))))
 (let ((?x115 (- (+ ?x110 ?x112) (* l_1_1_6 (- (* (- 81.0) _a_1_) (* 82.0 _a_2_))))))
 (= (- (+ (- (+ ?x115 ?x85) ?x89) ?x90) 69.0) 0.0))))))))))))
(assert
 (let ((?x455 (* 6397.0 l_1_1_8)))
 (let ((?x489 (* l_1_1_17 l_1_1_17)))
 (let ((?x71 (* l_1_1_16 l_1_1_16)))
 (let ((?x290 (* _a_0_ l_1_1_2)))
 (let ((?x183 (- (- (- (* (- _a_0_) l_1_1_1) (* _a_0_ l_1_1_11)) ?x290) (* l_1_1_10 (- (+ (* (- 82.0) _a_0_) _a_1_) (* 81.0 _a_2_))))))
 (let ((?x493 (- (- (- ?x183 ?x71) ?x489) (* l_1_1_4 (+ (* (* 2.0 _a_0_) _a_1_) (* _a_2_ _a_2_))))))
 (let ((?x282 (- (- ?x493 l_1_1_5) (* l_1_1_6 (- (+ (* (- 82.0) _a_0_) _a_1_) (* 81.0 _a_2_))))))
 (= (+ (- (- (- ?x282 l_1_1_7) ?x455) l_1_1_9) 1.0) 0.0)))))))))
(assert
 (let ((?x366 (- (- (* (- _a_0_) l_1_1_10) (* _a_0_ l_1_1_6)) (* (* l_1_1_4 _a_0_) _a_0_))))
 (= (- ?x366 l_1_1_8) 0.0)))
(assert
 (let ((?x511 (* 162.0 l_1_1_8)))
 (let ((?x554 (- (* (* (* (- 2.0) _a_0_) _a_2_) l_1_1_4) (* l_1_1_10 (+ (* (- 81.0) _a_0_) _a_2_)))))
 (= (+ (- ?x554 (* l_1_1_6 (+ (* (- 81.0) _a_0_) _a_2_))) ?x511) 0.0))))
(assert
 (>= l_1_1_1 0.0))
(assert
 (>= l_1_1_2 0.0))
(assert
 (>= l_1_1_3 0.0))
(assert
 (>= l_1_1_4 0.0))
(assert
 (>= l_1_1_5 0.0))
(assert
 (>= l_1_1_6 0.0))
(assert
 (>= l_1_1_7 0.0))
(assert
 (>= l_1_1_8 0.0))
(assert
 (>= l_1_1_9 0.0))
(assert
 (>= l_1_1_10 0.0))
(assert
 (>= l_1_1_11 0.0))
(assert
 (>= l_1_1_12 0.0))
(assert
 (>= l_1_1_13 0.0))
(assert
 (>= l_1_1_14 0.0))
(assert
 (>= l_1_1_15 0.0))
(assert
 (>= l_1_1_17 0.0))
(assert
 (let ((?x599 (* 6397.0 l_1_2_6)))
 (let ((?x593 (* l_1_2_17 l_1_2_17)))
 (let ((?x591 (* l_1_2_16 l_1_2_16)))
 (let ((?x581 (* (/ 2709.0 10000000.0) _a_2_)))
 (let ((?x578 (* (/ 9997291.0 10000000.0) _a_0_)))
 (let ((?x575 (* _a_0_ l_1_2_8)))
 (let ((?x579 (+ (- (- (* (- _a_0_) l_1_2_5) (* _a_0_ l_1_2_7)) ?x575) ?x578)))
 (let ((?x584 (- (- ?x579 ?x581) (* l_1_2_1 (+ (* (* 2.0 _a_0_) _a_1_) (* _a_2_ _a_2_))))))
 (let ((?x589 (- ?x584 (* l_1_2_10 (+ (- (* 82.0 _a_0_) _a_1_) (* 81.0 _a_2_))))))
 (let ((?x596 (- (- (- (+ ?x589 l_1_2_13) ?x591) ?x593) (* l_1_2_2 (+ (- (* 82.0 _a_0_) _a_1_) (* 81.0 _a_2_))))))
 (= (- (+ (+ ?x596 l_1_2_3) l_1_2_4) ?x599) 0.0))))))))))))
(assert
 (let ((?x730 (* 13284.0 l_1_2_6)))
 (let ((?x728 (* 81.0 l_1_2_4)))
 (let ((?x726 (* 81.0 l_1_2_3)))
 (let ((?x719 (* 81.0 l_1_2_13)))
 (let ((?x712 (* _a_2_ l_1_2_8)))
 (let ((?x710 (* _a_2_ l_1_2_7)))
 (let ((?x708 (* _a_2_ l_1_2_5)))
 (let ((?x709 (- (- (* 1.0 _a_0_) (* (* (* 2.0 _a_1_) _a_2_) l_1_2_1)) ?x708)))
 (let ((?x718 (- (+ (- (- ?x709 ?x710) ?x712) _a_2_) (* l_1_2_10 (+ (* 81.0 _a_1_) (* 82.0 _a_2_))))))
 (let ((?x725 (- (- (- ?x718 ?x719) (* (* 2.0 l_1_2_15) l_1_2_16)) (* l_1_2_2 (+ (* 81.0 _a_1_) (* 82.0 _a_2_))))))
 (= (- (- (- ?x725 ?x726) ?x728) ?x730) 0.0))))))))))))
(assert
 (let ((?x813 (- (- (* (* (* (- 2.0) _a_0_) _a_2_) l_1_2_1) (* (/ 2709.0 5000000.0) _a_0_)) (* l_1_2_10 (- (* 81.0 _a_0_) _a_2_)))))
 (let ((?x817 (+ (- ?x813 (* l_1_2_2 (- (* 81.0 _a_0_) _a_2_))) (* 162.0 l_1_2_6))))
 (= ?x817 0.0))))
(assert
 (let ((?x897 (* 6724.0 l_1_2_6)))
 (let ((?x895 (* 82.0 l_1_2_4)))
 (let ((?x893 (* 82.0 l_1_2_3)))
 (let ((?x891 (* l_1_2_15 l_1_2_15)))
 (let ((?x888 (* 82.0 l_1_2_13)))
 (let ((?x881 (* (/ 1.0 2.0) _a_2_)))
 (let ((?x877 (* _a_1_ l_1_2_8)))
 (let ((?x875 (* _a_1_ l_1_2_7)))
 (let ((?x873 (* _a_1_ l_1_2_5)))
 (let ((?x872 (- (- (* (/ 1.0 4.0) _a_0_) (* (* 82.0 _a_1_) l_1_2_10)) (* (* 82.0 _a_1_) l_1_2_2))))
 (let ((?x885 (- (+ (+ (- (- (- ?x872 ?x873) ?x875) ?x877) _a_1_) ?x881) (* (* l_1_2_1 _a_1_) _a_1_))))
 (let ((?x894 (- (- (- (- (- (- ?x885 l_1_2_11) l_1_2_12) ?x888) l_1_2_14) ?x891) ?x893)))
 (= (- (- (- ?x894 ?x895) ?x897) l_1_2_9) 0.0))))))))))))))
(assert
 (let ((?x959 (* (/ 7338681.0 100000000000000.0) _a_0_)))
 (let ((?x963 (- (+ (+ (* _a_0_ l_1_2_10) (* _a_0_ l_1_2_2)) ?x959) (* (* l_1_2_1 _a_0_) _a_0_))))
 (= (- ?x963 l_1_2_6) 0.0))))
(assert
 (>= l_1_2_1 0.0))
(assert
 (>= l_1_2_2 0.0))
(assert
 (>= l_1_2_3 0.0))
(assert
 (>= l_1_2_4 0.0))
(assert
 (>= l_1_2_5 0.0))
(assert
 (>= l_1_2_6 0.0))
(assert
 (>= l_1_2_7 0.0))
(assert
 (>= l_1_2_8 0.0))
(assert
 (>= l_1_2_9 0.0))
(assert
 (>= l_1_2_10 0.0))
(assert
 (>= l_1_2_11 0.0))
(assert
 (>= l_1_2_12 0.0))
(assert
 (>= l_1_2_13 0.0))
(assert
 (>= l_1_2_14 0.0))
(assert
 (>= l_1_2_15 0.0))
(assert
 (>= l_1_2_17 0.0))
(check-sat)
(get-model)